<number of tasks>
20


<number of equipment>
5


<cycle time>
1000


<investment costs>
1,16789
2,17933
3,22681
4,26099
5,24312


<task times>
1,-1,-1,107,102,116
2,-1,-1,98,99,84
3,131,-1,-1,61,-1
4,-1,149,-1,108,104
5,-1,114,-1,61,74
6,-1,-1,109,65,103
7,-1,137,-1,104,105
8,-1,130,-1,65,86
9,-1,133,-1,121,109
10,179,-1,-1,144,-1
11,-1,-1,140,74,102
12,-1,-1,108,76,83
13,-1,-1,117,101,110
14,-1,-1,72,57,59
15,-1,149,-1,71,125
16,184,-1,-1,65,-1
17,-1,123,-1,76,84
18,-1,-1,62,53,73
19,-1,-1,114,69,92
20,-1,-1,169,83,144


<precedence relations>
3,11
4,7
4,10
4,12
5,8
5,9
7,15
11,13
11,14
14,18
15,16
15,17
16,19
17,20


<task types>
1,3
2,3
3,1
4,2
5,2
6,3
7,2
8,2
9,2
10,1
11,3
12,3
13,3
14,3
15,2
16,1
17,2
18,3
19,3
20,3


<line depot>
1,0
2,0
3,0
4,2
5,0


<processing costs>
1,7200
2,7200
3,7200
4,21600
5,14400


<saving costs>
1,1678
2,1793
3,2268
4,2609
5,2431


<end>
